\ENCODING=ISO-8859-1
\Problem name: 

Minimize
 obj: x1 + x2 + x3 + x4 + x5 + x6 + x7 + x8 + x9 + x10 + x11 + x12 + x13 + x14
      + x15 + 2 x16 + 2 x17 + 2 x18 + 2 x19 + 2 x20 + 2 x21 + 2 x22 + 2 x23
      + 2 x24 + 2 x25 + 2 x26 + 2 x27 + 2 x28 + 2 x29 + 2 x30 + 2 x31 + 2 x32
      + 2 x33 + 2 x34 + 2 x35 + 2 x36 + 2 x37 + 2 x38 + 2 x39 + 3 x40 + 3 x41
      + 3 x42 + 3 x43 + 3 x44 + 3 x45 + 3 x46 + 3 x47 + 3 x48 + 3 x49 + 3 x50
      + 3 x51 + 3 x52 + 3 x53 + 3 x54 + 3 x55 + 3 x56 + 3 x57 + 4 x58 + 4 x59
      + 4 x60 + 4 x61 + 4 x62 + 4 x63 + 4 x64 + 4 x65 + 4 x66 + 4 x67 + 4 x68
      + 4 x69 + 4 x70 + 4 x71 + 4 x72 + 4 x73 + 4 x74 + 4 x75 + 4 x76 + 4 x77
      + 4 x78 + 5 x79 + 5 x80 + 5 x81 + 5 x82 + 5 x83 + 5 x84 + 5 x85 + 5 x86
      + 5 x87 + 5 x88 + 5 x89 + 5 x90 + 6 x91 + 6 x92 + 6 x93 + 6 x94 + 6 x95
      + 6 x96 + 6 x97 + 6 x98 + 6 x99 + 6 x100 + 7 x101 + 7 x102 + 7 x103
      + 7 x104 + 7 x105 + 7 x106 + 7 x107 + 7 x108 + 7 x109 + 7 x110 + 7 x111
      + 8 x112 + 8 x113 + 8 x114 + 8 x115 + 8 x116 + 8 x117 + 8 x118 + 8 x119
      + 8 x120 + 8 x121 + 8 x122 + 8 x123 + 8 x124 + 8 x125 + 8 x126 + 8 x127
      + 9 x128 + 9 x129 + 9 x130 + 9 x131 + 9 x132 + 9 x133 + 10 x134 + 10 x135
      + 10 x136 + 10 x137 + 10 x138 + 10 x139 + 10 x140 + 10 x141 + 10 x142
      + 11 x143 + 11 x144 + 11 x145 + 11 x146 + 11 x147 + 11 x148 + 11 x149
      + 11 x150 + 11 x151 + 11 x152 + 12 x153 + 12 x154 + 12 x155 + 12 x156
      + 13 x157 + 13 x158 + 13 x159 + 13 x160 + 13 x161 + 13 x162 + 14 x163
      + 14 x164 + 14 x165 + 14 x166 + 14 x167 + 14 x168 + 14 x169 + 14 x170
      + 14 x171 + 15 x172 + 15 x173 + 15 x174 + 15 x175 + 15 x176 + 16 x177
      + 16 x178 + 16 x179 + 16 x180 + 16 x181 + 16 x182 + 16 x183 + 16 x184
      + 17 x185 + 17 x186 + 17 x187 + 17 x188 + 17 x189 + 17 x190 + 17 x191
      + 18 x192 + 18 x193 + 18 x194 + 18 x195 + 19 x196 + 19 x197 + 19 x198
      + 20 x199 + 20 x200 + 21 x201 + 21 x202 + 22 x203 + 22 x204 + 23 x205
      + 24 x206 + 25 x207 + 26 x208 + 26 x209 + 27 x210 + 29 x211 + 31 x212
Subject To
 c1:   x83 + x190 + x201 >= 1
 c2:   x18 + x99 + x112 + x136 + x145 >= 1
 c3:   x12 + x16 + x17 + x29 + x77 >= 1
 c4:   x164 + x173 + x190 + x204 + x211 >= 1
 c5:   x45 + x86 + x101 + x119 + x122 + x164 + x180 + x186 + x199 >= 1
 c6:   x79 + x127 + x139 + x162 + x177 + x179 + x191 + x207 >= 1
 c7:   x27 + x50 + x59 + x60 + x74 + x177 + x198 >= 1
 c8:   x29 + x105 + x149 + x166 + x212 >= 1
 c9:   x11 + x41 + x55 + x93 + x98 + x118 + x200 >= 1
 c10:  x60 + x70 + x77 + x104 + x192 + x207 >= 1
 c11:  x26 + x103 + x171 + x205 >= 1
 c12:  x29 + x144 + x145 + x154 + x186 + x192 >= 1
 c13:  x44 + x50 + x84 + x104 + x140 + x163 >= 1
 c14:  x79 + x180 + x209 >= 1
 c15:  x5 + x24 + x60 + x145 + x177 >= 1
 c16:  x41 + x157 >= 1
 c17:  x81 + x101 + x126 + x131 + x144 + x164 + x168 + x195 >= 1
 c18:  x30 + x118 + x135 + x157 >= 1
 c19:  x10 + x19 + x34 + x92 + x147 + x172 >= 1
 c20:  x72 + x138 + x154 >= 1
 c21:  x4 + x107 >= 1
 c22:  x19 >= 1
 c23:  x3 + x16 + x47 + x128 + x145 + x210 >= 1
 c24:  x4 + x25 + x32 + x128 + x188 >= 1
 c25:  x43 + x61 + x72 + x120 + x159 + x192 >= 1
 c26:  x41 + x156 + x160 + x161 + x210 >= 1
 c27:  x50 + x76 + x106 + x121 + x182 + x198 >= 1
 c28:  x19 >= 1
 c29:  x28 + x68 + x141 + x161 >= 1
 c30:  x13 + x102 + x110 >= 1
 c31:  x1 + x21 + x24 >= 1
 c32:  x11 + x64 + x112 + x123 + x157 + x169 + x208 >= 1
 c33:  x91 + x132 + x182 >= 1
 c34:  x3 + x43 + x113 + x122 + x205 + x212 >= 1
 c35:  x40 + x148 + x155 + x169 + x178 + x198 >= 1
 c36:  x6 + x71 + x81 + x172 >= 1
 c37:  x136 + x146 + x152 + x153 + x156 + x167 + x168 + x189 + x200 + x203
       + x208 >= 1
 c38:  x3 + x62 + x63 + x76 >= 1
 c39:  x39 + x40 + x69 + x114 + x136 + x137 + x212 >= 1
 c40:  x28 + x42 + x58 >= 1
 c41:  x99 + x129 + x181 + x197 >= 1
 c42:  x34 + x63 + x151 + x164 + x174 >= 1
 c43:  x19 + x34 + x85 + x92 + x149 >= 1
 c44:  x65 + x97 + x146 + x201 >= 1
 c45:  x11 + x48 + x90 + x135 + x143 + x201 >= 1
 c46:  x95 + x111 + x183 + x185 >= 1
 c47:  x16 + x20 + x48 + x70 + x81 + x107 + x165 + x189 >= 1
 c48:  x5 + x30 + x61 + x64 >= 1
 c49:  x2 + x45 >= 1
 c50:  x1 + x2 + x17 + x187 + x197 >= 1
 c51:  x127 >= 1
 c52:  x102 + x114 + x125 + x196 + x206 >= 1
 c53:  x36 + x40 + x87 + x152 + x188 >= 1
 c54:  x33 + x44 + x79 + x211 >= 1
 c55:  x21 + x23 + x140 + x153 + x207 >= 1
 c56:  x31 + x49 + x143 + x204 + x209 >= 1
 c57:  x101 + x181 + x187 >= 1
 c58:  x5 + x25 + x40 + x66 + x93 + x132 >= 1
 c59:  x48 + x73 + x86 + x91 + x114 + x144 + x203 >= 1
 c60:  x24 + x134 + x196 + x197 >= 1
 c61:  x42 + x152 >= 1
 c62:  x42 + x82 + x105 + x162 + x165 + x208 >= 1
 c63:  x12 + x17 + x53 + x134 + x199 >= 1
 c64:  x14 + x32 + x89 + x112 + x173 >= 1
 c65:  x99 + x144 + x185 >= 1
 c66:  x30 + x128 + x146 + x165 >= 1
 c67:  x129 + x176 + x188 + x191 + x203 + x210 >= 1
 c68:  x5 + x37 + x52 + x91 + x100 + x182 + x204 >= 1
 c69:  x17 + x47 + x76 + x112 + x156 + x190 + x211 >= 1
 c70:  x98 + x139 + x147 + x202 >= 1
 c71:  x1 + x20 + x46 + x157 >= 1
 c72:  x5 + x57 + x92 + x130 + x134 >= 1
 c73:  x46 + x79 + x120 >= 1
 c74:  x25 + x30 + x49 + x117 + x118 + x133 >= 1
 c75:  x43 + x87 + x104 + x151 + x160 >= 1
 c76:  x28 + x82 + x186 + x204 >= 1
 c77:  x15 + x19 + x94 >= 1
 c78:  x96 + x98 + x122 + x138 + x158 + x168 + x203 + x204 >= 1
 c79:  x26 + x64 + x70 + x96 + x185 >= 1
 c80:  x9 + x81 + x156 >= 1
 c81:  x31 + x88 + x95 + x101 + x103 + x124 + x127 + x142 + x150 >= 1
 c82:  x119 + x133 + x144 >= 1
 c83:  x8 + x68 + x170 + x173 + x182 + x208 >= 1
 c84:  x110 + x116 + x141 + x148 + x150 + x182 + x187 >= 1
 c85:  x16 + x69 + x143 + x192 >= 1
 c86:  x11 + x27 + x48 + x62 >= 1
 c87:  x1 + x58 + x59 + x91 + x92 + x158 + x192 >= 1
 c88:  x29 + x80 + x85 + x103 + x200 + x207 >= 1
 c89:  x10 + x35 + x46 + x81 >= 1
 c90:  x9 + x63 + x91 >= 1
 c91:  x6 + x27 + x165 + x170 + x185 + x193 >= 1
 c92:  x21 + x43 + x84 + x101 + x112 + x130 + x164 >= 1
 c93:  x15 + x18 + x95 + x129 + x169 >= 1
 c94:  x96 + x177 + x183 >= 1
 c95:  x67 + x88 + x148 + x160 >= 1
 c96:  x155 + x175 + x197 + x198 + x206 >= 1
 c97:  x2 + x8 + x23 + x63 + x135 + x174 + x178 + x198 >= 1
 c98:  x116 + x194 + x205 >= 1
 c99:  x3 + x20 + x47 + x71 + x108 + x131 + x135 + x205 + x211 >= 1
 c100: x16 + x18 + x35 + x54 + x60 >= 1
 c101: x96 + x122 + x199 >= 1
 c102: x2 + x53 >= 1
 c103: x19 + x22 + x73 + x93 + x107 + x158 + x175 + x208 >= 1
 c104: x7 + x28 + x44 + x67 + x102 + x118 + x123 + x138 + x157 >= 1
 c105: x6 + x99 + x198 + x208 >= 1
 c106: x17 + x36 + x85 + x158 >= 1
 c107: x21 + x72 >= 1
 c108: x2 + x26 + x128 + x153 + x186 + x189 + x196 >= 1
 c109: x114 + x148 + x174 >= 1
 c110: x8 + x17 + x25 + x102 + x115 >= 1
 c111: x33 + x49 + x80 + x177 + x180 + x181 + x203 >= 1
 c112: x24 + x84 >= 1
 c113: x42 + x173 + x178 >= 1
 c114: x115 + x119 + x128 + x135 + x137 + x179 + x212 >= 1
 c115: x27 + x151 >= 1
 c116: x9 + x36 + x65 + x66 + x124 + x168 + x171 >= 1
 c117: x51 + x56 + x94 + x185 + x199 >= 1
 c118: x125 + x147 + x174 + x184 + x200 + x211 >= 1
 c119: x92 + x154 + x161 + x162 + x163 + x167 + x178 + x212 >= 1
 c120: x117 + x123 + x186 >= 1
 c121: x9 + x129 + x153 >= 1
 c122: x20 + x62 + x137 + x145 + x150 + x166 >= 1
 c123: x149 + x151 + x184 + x197 + x206 + x209 >= 1
 c124: x17 + x106 + x139 + x177 >= 1
 c125: x4 + x18 + x95 + x101 + x130 + x204 >= 1
 c126: x7 + x115 + x119 + x133 + x185 >= 1
 c127: x20 + x61 + x91 + x180 + x206 >= 1
 c128: x10 + x18 + x41 + x80 + x94 >= 1
 c129: x100 + x144 + x189 + x194 >= 1
 c130: x78 + x114 + x205 + x208 >= 1
 c131: x50 + x91 + x149 + x166 + x196 >= 1
 c132: x1 + x23 + x73 + x112 + x116 + x117 + x137 >= 1
 c133: x79 + x80 + x93 + x105 + x118 + x154 + x163 >= 1
 c134: x13 + x58 + x69 + x211 >= 1
 c135: x51 + x106 + x117 + x131 + x184 >= 1
 c136: x12 + x23 + x49 + x113 + x128 + x139 >= 1
 c137: x18 + x31 + x84 + x136 + x137 >= 1
 c138: x134 + x172 + x203 + x205 >= 1
 c139: x1 + x134 + x187 + x209 >= 1
 c140: x47 + x59 + x61 + x70 + x79 + x85 + x144 + x155 >= 1
 c141: x16 + x61 + x179 >= 1
 c142: x137 + x142 + x183 + x200 + x209 + x210 >= 1
 c143: x45 + x58 + x62 + x75 + x158 + x159 >= 1
 c144: x14 + x26 + x52 + x65 + x153 >= 1
 c145: x13 + x125 >= 1
 c146: x42 + x66 + x69 + x87 + x187 >= 1
 c147: x6 + x91 + x106 + x112 + x138 + x140 + x155 + x201 >= 1
 c148: x22 + x64 + x74 + x94 + x143 >= 1
 c149: x18 + x23 + x115 + x157 + x163 + x164 + x187 >= 1
 c150: x83 + x95 + x145 + x165 + x166 + x178 + x191 >= 1
 c151: x55 + x68 + x97 + x113 + x206 >= 1
 c152: x89 + x109 + x126 + x130 + x180 + x188 >= 1
 c153: x40 + x56 + x78 + x80 + x94 + x100 + x161 + x166 >= 1
 c154: x123 + x124 + x170 + x176 + x203 >= 1
 c155: x35 + x75 + x141 + x143 + x167 + x195 >= 1
 c156: x31 + x75 + x93 + x181 + x183 >= 1
 c157: x4 + x117 + x121 + x134 + x147 + x157 + x185 >= 1
 c158: x90 + x143 + x178 >= 1
 c159: x37 + x54 + x59 + x111 + x135 + x143 + x210 >= 1
 c160: x6 + x115 + x202 + x211 >= 1
 c161: x57 + x82 + x134 + x192 + x210 >= 1
 c162: x21 + x92 + x109 + x154 >= 1
 c163: x3 + x113 + x163 >= 1
 c164: x2 + x104 + x159 >= 1
 c165: x26 + x53 + x120 + x147 + x192 + x202 >= 1
 c166: x22 + x92 + x158 + x196 >= 1
 c167: x16 + x159 + x186 >= 1
 c168: x1 + x62 + x103 + x146 + x163 + x164 + x210 >= 1
 c169: x77 + x107 + x108 + x113 + x153 + x160 >= 1
 c170: x20 + x100 + x160 + x193 + x210 >= 1
 c171: x38 + x120 + x132 + x173 + x179 + x185 + x199 >= 1
 c172: x67 + x79 + x83 + x97 + x134 + x163 + x175 + x204 >= 1
 c173: x40 + x139 + x159 >= 1
 c174: x32 + x44 + x113 + x121 + x149 + x167 + x194 + x200 + x208 >= 1
 c175: x22 + x67 + x101 + x177 >= 1
 c176: x21 + x45 + x102 + x172 + x179 + x208 >= 1
 c177: x1 + x58 + x180 + x209 >= 1
 c178: x131 + x143 + x157 + x196 + x198 + x201 >= 1
 c179: x33 + x165 + x196 + x197 >= 1
 c180: x7 + x103 + x162 >= 1
 c181: x7 + x27 + x58 + x82 + x83 + x167 + x176 + x188 + x193 >= 1
 c182: x116 + x132 + x140 + x146 + x193 + x211 >= 1
 c183: x60 + x74 + x109 + x116 + x126 + x145 + x146 + x197 >= 1
 c184: x8 + x10 + x71 >= 1
 c185: x12 + x65 + x110 >= 1
 c186: x3 + x79 + x98 + x158 + x179 >= 1
 c187: x169 + x171 + x183 + x192 + x195 + x199 + x202 + x209 + x212 >= 1
 c188: x46 + x108 >= 1
 c189: x16 + x193 >= 1
 c190: x22 + x41 + x68 + x80 + x81 + x105 + x174 + x201 + x205 >= 1
 c191: x51 + x52 + x82 + x86 + x88 + x136 + x138 + x194 >= 1
 c192: x161 + x167 + x172 + x193 + x207 + x209 >= 1
 c193: x4 + x102 + x129 + x135 + x140 + x150 >= 1
 c194: x22 + x24 + x25 + x66 + x101 + x130 + x158 + x185 >= 1
 c195: x38 + x181 + x207 >= 1
 c196: x86 + x166 + x170 + x201 + x212 >= 1
 c197: x59 + x121 >= 1
 c198: x28 + x59 + x71 + x102 + x208 >= 1
 c199: x17 + x82 + x97 + x129 + x141 + x148 + x159 + x194 + x199 >= 1
 c200: x14 + x79 + x136 + x185 >= 1
Bounds
 0 <= x1 <= 1
 0 <= x2 <= 1
 0 <= x3 <= 1
 0 <= x4 <= 1
 0 <= x5 <= 1
 0 <= x6 <= 1
 0 <= x7 <= 1
 0 <= x8 <= 1
 0 <= x9 <= 1
 0 <= x10 <= 1
 0 <= x11 <= 1
 0 <= x12 <= 1
 0 <= x13 <= 1
 0 <= x14 <= 1
 0 <= x15 <= 1
 0 <= x16 <= 1
 0 <= x17 <= 1
 0 <= x18 <= 1
 0 <= x19 <= 1
 0 <= x20 <= 1
 0 <= x21 <= 1
 0 <= x22 <= 1
 0 <= x23 <= 1
 0 <= x24 <= 1
 0 <= x25 <= 1
 0 <= x26 <= 1
 0 <= x27 <= 1
 0 <= x28 <= 1
 0 <= x29 <= 1
 0 <= x30 <= 1
 0 <= x31 <= 1
 0 <= x32 <= 1
 0 <= x33 <= 1
 0 <= x34 <= 1
 0 <= x35 <= 1
 0 <= x36 <= 1
 0 <= x37 <= 1
 0 <= x38 <= 1
 0 <= x39 <= 1
 0 <= x40 <= 1
 0 <= x41 <= 1
 0 <= x42 <= 1
 0 <= x43 <= 1
 0 <= x44 <= 1
 0 <= x45 <= 1
 0 <= x46 <= 1
 0 <= x47 <= 1
 0 <= x48 <= 1
 0 <= x49 <= 1
 0 <= x50 <= 1
 0 <= x51 <= 1
 0 <= x52 <= 1
 0 <= x53 <= 1
 0 <= x54 <= 1
 0 <= x55 <= 1
 0 <= x56 <= 1
 0 <= x57 <= 1
 0 <= x58 <= 1
 0 <= x59 <= 1
 0 <= x60 <= 1
 0 <= x61 <= 1
 0 <= x62 <= 1
 0 <= x63 <= 1
 0 <= x64 <= 1
 0 <= x65 <= 1
 0 <= x66 <= 1
 0 <= x67 <= 1
 0 <= x68 <= 1
 0 <= x69 <= 1
 0 <= x70 <= 1
 0 <= x71 <= 1
 0 <= x72 <= 1
 0 <= x73 <= 1
 0 <= x74 <= 1
 0 <= x75 <= 1
 0 <= x76 <= 1
 0 <= x77 <= 1
 0 <= x78 <= 1
 0 <= x79 <= 1
 0 <= x80 <= 1
 0 <= x81 <= 1
 0 <= x82 <= 1
 0 <= x83 <= 1
 0 <= x84 <= 1
 0 <= x85 <= 1
 0 <= x86 <= 1
 0 <= x87 <= 1
 0 <= x88 <= 1
 0 <= x89 <= 1
 0 <= x90 <= 1
 0 <= x91 <= 1
 0 <= x92 <= 1
 0 <= x93 <= 1
 0 <= x94 <= 1
 0 <= x95 <= 1
 0 <= x96 <= 1
 0 <= x97 <= 1
 0 <= x98 <= 1
 0 <= x99 <= 1
 0 <= x100 <= 1
 0 <= x101 <= 1
 0 <= x102 <= 1
 0 <= x103 <= 1
 0 <= x104 <= 1
 0 <= x105 <= 1
 0 <= x106 <= 1
 0 <= x107 <= 1
 0 <= x108 <= 1
 0 <= x109 <= 1
 0 <= x110 <= 1
 0 <= x111 <= 1
 0 <= x112 <= 1
 0 <= x113 <= 1
 0 <= x114 <= 1
 0 <= x115 <= 1
 0 <= x116 <= 1
 0 <= x117 <= 1
 0 <= x118 <= 1
 0 <= x119 <= 1
 0 <= x120 <= 1
 0 <= x121 <= 1
 0 <= x122 <= 1
 0 <= x123 <= 1
 0 <= x124 <= 1
 0 <= x125 <= 1
 0 <= x126 <= 1
 0 <= x127 <= 1
 0 <= x128 <= 1
 0 <= x129 <= 1
 0 <= x130 <= 1
 0 <= x131 <= 1
 0 <= x132 <= 1
 0 <= x133 <= 1
 0 <= x134 <= 1
 0 <= x135 <= 1
 0 <= x136 <= 1
 0 <= x137 <= 1
 0 <= x138 <= 1
 0 <= x139 <= 1
 0 <= x140 <= 1
 0 <= x141 <= 1
 0 <= x142 <= 1
 0 <= x143 <= 1
 0 <= x144 <= 1
 0 <= x145 <= 1
 0 <= x146 <= 1
 0 <= x147 <= 1
 0 <= x148 <= 1
 0 <= x149 <= 1
 0 <= x150 <= 1
 0 <= x151 <= 1
 0 <= x152 <= 1
 0 <= x153 <= 1
 0 <= x154 <= 1
 0 <= x155 <= 1
 0 <= x156 <= 1
 0 <= x157 <= 1
 0 <= x158 <= 1
 0 <= x159 <= 1
 0 <= x160 <= 1
 0 <= x161 <= 1
 0 <= x162 <= 1
 0 <= x163 <= 1
 0 <= x164 <= 1
 0 <= x165 <= 1
 0 <= x166 <= 1
 0 <= x167 <= 1
 0 <= x168 <= 1
 0 <= x169 <= 1
 0 <= x170 <= 1
 0 <= x171 <= 1
 0 <= x172 <= 1
 0 <= x173 <= 1
 0 <= x174 <= 1
 0 <= x175 <= 1
 0 <= x176 <= 1
 0 <= x177 <= 1
 0 <= x178 <= 1
 0 <= x179 <= 1
 0 <= x180 <= 1
 0 <= x181 <= 1
 0 <= x182 <= 1
 0 <= x183 <= 1
 0 <= x184 <= 1
 0 <= x185 <= 1
 0 <= x186 <= 1
 0 <= x187 <= 1
 0 <= x188 <= 1
 0 <= x189 <= 1
 0 <= x190 <= 1
 0 <= x191 <= 1
 0 <= x192 <= 1
 0 <= x193 <= 1
 0 <= x194 <= 1
 0 <= x195 <= 1
 0 <= x196 <= 1
 0 <= x197 <= 1
 0 <= x198 <= 1
 0 <= x199 <= 1
 0 <= x200 <= 1
 0 <= x201 <= 1
 0 <= x202 <= 1
 0 <= x203 <= 1
 0 <= x204 <= 1
 0 <= x205 <= 1
 0 <= x206 <= 1
 0 <= x207 <= 1
 0 <= x208 <= 1
 0 <= x209 <= 1
 0 <= x210 <= 1
 0 <= x211 <= 1
 0 <= x212 <= 1
Binaries
 x1  x2  x3  x4  x5  x6  x7  x8  x9  x10  x11  x12  x13  x14  x15  x16  x17 
 x18  x19  x20  x21  x22  x23  x24  x25  x26  x27  x28  x29  x30  x31  x32 
 x33  x34  x35  x36  x37  x38  x39  x40  x41  x42  x43  x44  x45  x46  x47 
 x48  x49  x50  x51  x52  x53  x54  x55  x56  x57  x58  x59  x60  x61  x62 
 x63  x64  x65  x66  x67  x68  x69  x70  x71  x72  x73  x74  x75  x76  x77 
 x78  x79  x80  x81  x82  x83  x84  x85  x86  x87  x88  x89  x90  x91  x92 
 x93  x94  x95  x96  x97  x98  x99  x100  x101  x102  x103  x104  x105  x106 
 x107  x108  x109  x110  x111  x112  x113  x114  x115  x116  x117  x118  x119 
 x120  x121  x122  x123  x124  x125  x126  x127  x128  x129  x130  x131  x132 
 x133  x134  x135  x136  x137  x138  x139  x140  x141  x142  x143  x144  x145 
 x146  x147  x148  x149  x150  x151  x152  x153  x154  x155  x156  x157  x158 
 x159  x160  x161  x162  x163  x164  x165  x166  x167  x168  x169  x170  x171 
 x172  x173  x174  x175  x176  x177  x178  x179  x180  x181  x182  x183  x184 
 x185  x186  x187  x188  x189  x190  x191  x192  x193  x194  x195  x196  x197 
 x198  x199  x200  x201  x202  x203  x204  x205  x206  x207  x208  x209  x210 
 x211  x212 
End
